19
19
4 15 16 0 6 3 11 5 10
18 2 9 16 12
9
4 7 12 8 5 1 3 15 16 9 13 11 14 18 17 0 6 10 2
9 15 6 0 12 7 17 14 10 18 8 1
8 3 15 7 1 13 18
1 3 0 13 14
17 5 0 18 14 16 6 13 8 4 15
14 17 3 6 1 15 12 10 5 4 13 0
14 9 3 15
9 5 15 13 4 0 8 12 17 1
2 13 12 6 18 15 16 14 4 10 0 9
4 8 17
2 5 13 11 16 3 7 14 17 6 1 10 4 8 15 9 12 18 0
0 17 18 5 15 6 14 2 9 8 13 4 10 12
15 13 18 17
14 18 12 17 11 2 9 8 7
6 3 11 10 18 2
7 13 10 4 2 5 14
